% Logging successfully configured
%%%mzn-stat: initTime=0.028004024
%%%mzn-stat: objective=515
%%%mzn-stat: nodes=126
%%%mzn-stat: restarts=0
%%%mzn-stat: peakDepth=123
%%%mzn-stat: solveTime=0.000454884
%%%mzn-stat: variables=290
%%%mzn-stat: propagators=381
%%%mzn-stat: failures=3
%%%mzn-stat: propagations=1749
%%%mzn-stat: nogoods=3
%%%mzn-stat: numAtomicConstraintsPropagated=0
%%%mzn-stat: circuitNumber191PropagationsThatFoundConflict=2
%%%mzn-stat: circuitNumber191TotalFixedEdgesAtConflict=40
%%%mzn-stat: circuitNumber191NumberOfConflicts=2
%%%mzn-stat: circuitNumber191PropagationsThatPruned=4
%%%mzn-stat: circuitNumber191PropagationsTotal=19
%%%mzn-stat: AverageConflictSize=10
%%%mzn-stat: NumUnitNogoodsLearned=0
%%%mzn-stat: AverageLearnedNogoodLength=10.333333333333334
%%%mzn-stat: AverageBacktrackAmount=0
%%%mzn-stat: AverageLbd=10.333333333333334
%%%mzn-stat: 2AutonomousSearchNumBackupCalled=112
%%%mzn-stat: 2AutonomousSearchNumPredicatesRemoved=0
%%%mzn-stat: 2AutonomousSearchNumCalls=113
%%%mzn-stat: 2AutonomousSearchNumPredicatesAdded=137
%%%mzn-stat: 2AutonomousSearchAverageSizeOfHeap=1.2123893805309736
%%%mzn-stat: 2AutonomousSearchNumAssignedPredicatesEncountered=137
%%%mzn-stat-end
maxleg = 515;
succ = array1d(1..20,[2, 3, 4, 9, 11, 7, 8, 1, 5, 19, 18, 17, 12, 6, 16, 20, 15, 13, 14, 10]);
% time elapsed: 16.36 s
----------
%%%mzn-stat: initTime=0.028004024
%%%mzn-stat: objective=492
%%%mzn-stat: nodes=258
%%%mzn-stat: restarts=0
%%%mzn-stat: peakDepth=128
%%%mzn-stat: solveTime=0.000831677
%%%mzn-stat: variables=290
%%%mzn-stat: propagators=381
%%%mzn-stat: failures=8
%%%mzn-stat: propagations=3123
%%%mzn-stat: nogoods=8
%%%mzn-stat: numAtomicConstraintsPropagated=0
%%%mzn-stat: circuitNumber191PropagationsThatFoundConflict=5
%%%mzn-stat: circuitNumber191TotalFixedEdgesAtConflict=88
%%%mzn-stat: circuitNumber191NumberOfConflicts=5
%%%mzn-stat: circuitNumber191PropagationsThatPruned=9
%%%mzn-stat: circuitNumber191PropagationsTotal=40
%%%mzn-stat: AverageConflictSize=5.75
%%%mzn-stat: NumUnitNogoodsLearned=0
%%%mzn-stat: AverageLearnedNogoodLength=11
%%%mzn-stat: AverageBacktrackAmount=0
%%%mzn-stat: AverageLbd=8.75
%%%mzn-stat: 2AutonomousSearchNumBackupCalled=227
%%%mzn-stat: 2AutonomousSearchNumPredicatesRemoved=0
%%%mzn-stat: 2AutonomousSearchNumCalls=229
%%%mzn-stat: 2AutonomousSearchNumPredicatesAdded=338
%%%mzn-stat: 2AutonomousSearchAverageSizeOfHeap=1.6943231441048034
%%%mzn-stat: 2AutonomousSearchNumAssignedPredicatesEncountered=388
%%%mzn-stat-end
maxleg = 492;
succ = array1d(1..20,[2, 3, 4, 9, 11, 7, 8, 1, 10, 19, 18, 17, 12, 5, 16, 20, 15, 13, 14, 6]);
% time elapsed: 16.36 s
----------
%%%mzn-stat: initTime=0.028004024
%%%mzn-stat: objective=483
%%%mzn-stat: nodes=385
%%%mzn-stat: restarts=0
%%%mzn-stat: peakDepth=128
%%%mzn-stat: solveTime=0.001169245
%%%mzn-stat: variables=290
%%%mzn-stat: propagators=381
%%%mzn-stat: failures=11
%%%mzn-stat: propagations=4362
%%%mzn-stat: nogoods=11
%%%mzn-stat: numAtomicConstraintsPropagated=0
%%%mzn-stat: circuitNumber191PropagationsThatFoundConflict=6
%%%mzn-stat: circuitNumber191TotalFixedEdgesAtConflict=105
%%%mzn-stat: circuitNumber191NumberOfConflicts=6
%%%mzn-stat: circuitNumber191PropagationsThatPruned=13
%%%mzn-stat: circuitNumber191PropagationsTotal=57
%%%mzn-stat: AverageConflictSize=4.909090909090909
%%%mzn-stat: NumUnitNogoodsLearned=0
%%%mzn-stat: AverageLearnedNogoodLength=12
%%%mzn-stat: AverageBacktrackAmount=0
%%%mzn-stat: AverageLbd=8.363636363636363
%%%mzn-stat: 2AutonomousSearchNumBackupCalled=339
%%%mzn-stat: 2AutonomousSearchNumPredicatesRemoved=0
%%%mzn-stat: 2AutonomousSearchNumCalls=342
%%%mzn-stat: 2AutonomousSearchNumPredicatesAdded=532
%%%mzn-stat: 2AutonomousSearchAverageSizeOfHeap=1.9619883040935673
%%%mzn-stat: 2AutonomousSearchNumAssignedPredicatesEncountered=671
%%%mzn-stat-end
maxleg = 483;
succ = array1d(1..20,[2, 3, 4, 9, 13, 7, 8, 1, 10, 19, 12, 17, 18, 5, 16, 20, 15, 11, 14, 6]);
% time elapsed: 16.36 s
----------
%%%mzn-stat: initTime=0.028004024
%%%mzn-stat: objective=454
%%%mzn-stat: nodes=572
%%%mzn-stat: restarts=0
%%%mzn-stat: peakDepth=128
%%%mzn-stat: solveTime=0.00469641
%%%mzn-stat: variables=290
%%%mzn-stat: propagators=381
%%%mzn-stat: failures=73
%%%mzn-stat: propagations=13039
%%%mzn-stat: nogoods=73
%%%mzn-stat: numAtomicConstraintsPropagated=0
%%%mzn-stat: circuitNumber191PropagationsThatFoundConflict=10
%%%mzn-stat: circuitNumber191TotalFixedEdgesAtConflict=173
%%%mzn-stat: circuitNumber191NumberOfConflicts=10
%%%mzn-stat: circuitNumber191PropagationsThatPruned=40
%%%mzn-stat: circuitNumber191PropagationsTotal=135
%%%mzn-stat: AverageConflictSize=3.3424657534246576
%%%mzn-stat: NumUnitNogoodsLearned=0
%%%mzn-stat: AverageLearnedNogoodLength=13.945205479452055
%%%mzn-stat: AverageBacktrackAmount=0
%%%mzn-stat: AverageLbd=6.589041095890411
%%%mzn-stat: 2AutonomousSearchNumBackupCalled=449
%%%mzn-stat: 2AutonomousSearchNumPredicatesRemoved=0
%%%mzn-stat: 2AutonomousSearchNumCalls=453
%%%mzn-stat: 2AutonomousSearchNumPredicatesAdded=1002
%%%mzn-stat: 2AutonomousSearchAverageSizeOfHeap=2.5607064017660046
%%%mzn-stat: 2AutonomousSearchNumAssignedPredicatesEncountered=1160
%%%mzn-stat-end
maxleg = 454;
succ = array1d(1..20,[2, 3, 4, 9, 14, 7, 8, 1, 13, 12, 18, 17, 11, 19, 16, 20, 15, 5, 10, 6]);
% time elapsed: 16.36 s
----------
%%%mzn-stat: initTime=0.028004024
%%%mzn-stat: objective=432
%%%mzn-stat: nodes=1262
%%%mzn-stat: restarts=0
%%%mzn-stat: peakDepth=128
%%%mzn-stat: solveTime=0.03588644
%%%mzn-stat: variables=290
%%%mzn-stat: propagators=381
%%%mzn-stat: failures=554
%%%mzn-stat: propagations=82183
%%%mzn-stat: nogoods=554
%%%mzn-stat: numAtomicConstraintsPropagated=0
%%%mzn-stat: circuitNumber191PropagationsThatFoundConflict=34
%%%mzn-stat: circuitNumber191TotalFixedEdgesAtConflict=511
%%%mzn-stat: circuitNumber191NumberOfConflicts=34
%%%mzn-stat: circuitNumber191PropagationsThatPruned=159
%%%mzn-stat: circuitNumber191PropagationsTotal=645
%%%mzn-stat: AverageConflictSize=4.6985559566787005
%%%mzn-stat: NumUnitNogoodsLearned=0
%%%mzn-stat: AverageLearnedNogoodLength=19.048736462093864
%%%mzn-stat: AverageBacktrackAmount=0
%%%mzn-stat: AverageLbd=7.129963898916968
%%%mzn-stat: 2AutonomousSearchNumBackupCalled=551
%%%mzn-stat: 2AutonomousSearchNumPredicatesRemoved=0
%%%mzn-stat: 2AutonomousSearchNumCalls=556
%%%mzn-stat: 2AutonomousSearchNumPredicatesAdded=1505
%%%mzn-stat: 2AutonomousSearchAverageSizeOfHeap=3.068345323741007
%%%mzn-stat: 2AutonomousSearchNumAssignedPredicatesEncountered=1706
%%%mzn-stat-end
maxleg = 432;
succ = array1d(1..20,[2, 3, 4, 17, 9, 7, 8, 1, 14, 15, 18, 13, 11, 19, 16, 20, 12, 5, 10, 6]);
% time elapsed: 16.37 s
----------
%%%mzn-stat: initTime=0.028004024
%%%mzn-stat: objective=416
%%%mzn-stat: nodes=1388
%%%mzn-stat: restarts=0
%%%mzn-stat: peakDepth=128
%%%mzn-stat: solveTime=0.037350573
%%%mzn-stat: variables=290
%%%mzn-stat: propagators=381
%%%mzn-stat: failures=572
%%%mzn-stat: propagations=85613
%%%mzn-stat: nogoods=572
%%%mzn-stat: numAtomicConstraintsPropagated=0
%%%mzn-stat: circuitNumber191PropagationsThatFoundConflict=46
%%%mzn-stat: circuitNumber191TotalFixedEdgesAtConflict=719
%%%mzn-stat: circuitNumber191NumberOfConflicts=46
%%%mzn-stat: circuitNumber191PropagationsThatPruned=171
%%%mzn-stat: circuitNumber191PropagationsTotal=688
%%%mzn-stat: AverageConflictSize=4.910839160839161
%%%mzn-stat: NumUnitNogoodsLearned=0
%%%mzn-stat: AverageLearnedNogoodLength=18.931818181818183
%%%mzn-stat: AverageBacktrackAmount=0
%%%mzn-stat: AverageLbd=7.178321678321678
%%%mzn-stat: 2AutonomousSearchNumBackupCalled=648
%%%mzn-stat: 2AutonomousSearchNumPredicatesRemoved=0
%%%mzn-stat: 2AutonomousSearchNumCalls=654
%%%mzn-stat: 2AutonomousSearchNumPredicatesAdded=1792
%%%mzn-stat: 2AutonomousSearchAverageSizeOfHeap=3.444954128440367
%%%mzn-stat: 2AutonomousSearchNumAssignedPredicatesEncountered=2253
%%%mzn-stat-end
maxleg = 416;
succ = array1d(1..20,[2, 3, 4, 17, 9, 8, 6, 15, 10, 19, 18, 13, 11, 7, 16, 20, 12, 5, 14, 1]);
% time elapsed: 16.37 s
----------
%%%mzn-stat: initTime=0.028004024
%%%mzn-stat: objective=385
%%%mzn-stat: nodes=1517
%%%mzn-stat: restarts=0
%%%mzn-stat: peakDepth=128
%%%mzn-stat: solveTime=0.039651719
%%%mzn-stat: variables=290
%%%mzn-stat: propagators=381
%%%mzn-stat: failures=598
%%%mzn-stat: propagations=90533
%%%mzn-stat: nogoods=598
%%%mzn-stat: numAtomicConstraintsPropagated=0
%%%mzn-stat: circuitNumber191PropagationsThatFoundConflict=51
%%%mzn-stat: circuitNumber191TotalFixedEdgesAtConflict=805
%%%mzn-stat: circuitNumber191NumberOfConflicts=51
%%%mzn-stat: circuitNumber191PropagationsThatPruned=194
%%%mzn-stat: circuitNumber191PropagationsTotal=742
%%%mzn-stat: AverageConflictSize=5.0200668896321075
%%%mzn-stat: NumUnitNogoodsLearned=0
%%%mzn-stat: AverageLearnedNogoodLength=18.98494983277592
%%%mzn-stat: AverageBacktrackAmount=0
%%%mzn-stat: AverageLbd=7.195652173913044
%%%mzn-stat: 2AutonomousSearchNumBackupCalled=735
%%%mzn-stat: 2AutonomousSearchNumPredicatesRemoved=0
%%%mzn-stat: 2AutonomousSearchNumCalls=742
%%%mzn-stat: 2AutonomousSearchNumPredicatesAdded=2235
%%%mzn-stat: 2AutonomousSearchAverageSizeOfHeap=3.816711590296496
%%%mzn-stat: 2AutonomousSearchNumAssignedPredicatesEncountered=2832
%%%mzn-stat-end
maxleg = 385;
succ = array1d(1..20,[2, 8, 4, 9, 14, 15, 6, 16, 13, 12, 18, 17, 11, 19, 1, 20, 3, 5, 7, 10]);
% time elapsed: 16.37 s
----------
%%%mzn-stat: initTime=0.028004024
%%%mzn-stat: objective=384
%%%mzn-stat: nodes=1609
%%%mzn-stat: restarts=0
%%%mzn-stat: peakDepth=128
%%%mzn-stat: solveTime=0.040189108
%%%mzn-stat: variables=290
%%%mzn-stat: propagators=381
%%%mzn-stat: failures=603
%%%mzn-stat: propagations=91957
%%%mzn-stat: nogoods=603
%%%mzn-stat: numAtomicConstraintsPropagated=0
%%%mzn-stat: circuitNumber191PropagationsThatFoundConflict=55
%%%mzn-stat: circuitNumber191TotalFixedEdgesAtConflict=869
%%%mzn-stat: circuitNumber191NumberOfConflicts=55
%%%mzn-stat: circuitNumber191PropagationsThatPruned=198
%%%mzn-stat: circuitNumber191PropagationsTotal=763
%%%mzn-stat: AverageConflictSize=4.9983416252072965
%%%mzn-stat: NumUnitNogoodsLearned=0
%%%mzn-stat: AverageLearnedNogoodLength=18.978441127694857
%%%mzn-stat: AverageBacktrackAmount=0
%%%mzn-stat: AverageLbd=7.203980099502488
%%%mzn-stat: 2AutonomousSearchNumBackupCalled=811
%%%mzn-stat: 2AutonomousSearchNumPredicatesRemoved=0
%%%mzn-stat: 2AutonomousSearchNumCalls=819
%%%mzn-stat: 2AutonomousSearchNumPredicatesAdded=2422
%%%mzn-stat: 2AutonomousSearchAverageSizeOfHeap=4.164835164835165
%%%mzn-stat: 2AutonomousSearchNumAssignedPredicatesEncountered=3411
%%%mzn-stat-end
maxleg = 384;
succ = array1d(1..20,[2, 8, 4, 9, 14, 16, 6, 15, 13, 12, 18, 17, 11, 19, 10, 20, 3, 5, 7, 1]);
% time elapsed: 16.38 s
----------
%%%mzn-stat: initTime=0.028004024
%%%mzn-stat: objective=377
%%%mzn-stat: nodes=1749
%%%mzn-stat: restarts=0
%%%mzn-stat: peakDepth=128
%%%mzn-stat: solveTime=0.042544603
%%%mzn-stat: variables=290
%%%mzn-stat: propagators=381
%%%mzn-stat: failures=636
%%%mzn-stat: propagations=97947
%%%mzn-stat: nogoods=636
%%%mzn-stat: numAtomicConstraintsPropagated=0
%%%mzn-stat: circuitNumber191PropagationsThatFoundConflict=74
%%%mzn-stat: circuitNumber191TotalFixedEdgesAtConflict=1156
%%%mzn-stat: circuitNumber191NumberOfConflicts=74
%%%mzn-stat: circuitNumber191PropagationsThatPruned=212
%%%mzn-stat: circuitNumber191PropagationsTotal=840
%%%mzn-stat: AverageConflictSize=5.10062893081761
%%%mzn-stat: NumUnitNogoodsLearned=0
%%%mzn-stat: AverageLearnedNogoodLength=18.900943396226417
%%%mzn-stat: AverageBacktrackAmount=0
%%%mzn-stat: AverageLbd=7.116352201257862
%%%mzn-stat: 2AutonomousSearchNumBackupCalled=896
%%%mzn-stat: 2AutonomousSearchNumPredicatesRemoved=0
%%%mzn-stat: 2AutonomousSearchNumCalls=905
%%%mzn-stat: 2AutonomousSearchNumPredicatesAdded=2872
%%%mzn-stat: 2AutonomousSearchAverageSizeOfHeap=4.4088397790055245
%%%mzn-stat: 2AutonomousSearchNumAssignedPredicatesEncountered=3990
%%%mzn-stat-end
maxleg = 377;
succ = array1d(1..20,[2, 8, 4, 11, 9, 16, 6, 15, 14, 12, 18, 17, 5, 19, 10, 20, 3, 13, 7, 1]);
% time elapsed: 16.38 s
----------
==========
% time elapsed: 16.43 s
%%%mzn-stat: initTime=0.028004024
%%%mzn-stat: objective=377
%%%mzn-stat: nodes=2427
%%%mzn-stat: restarts=0
%%%mzn-stat: peakDepth=128
%%%mzn-stat: solveTime=0.092305994
%%%mzn-stat: variables=290
%%%mzn-stat: propagators=381
%%%mzn-stat: failures=1280
%%%mzn-stat: propagations=175703
%%%mzn-stat: nogoods=1280
%%%mzn-stat: numAtomicConstraintsPropagated=0
%%%mzn-stat: circuitNumber191PropagationsThatFoundConflict=140
%%%mzn-stat: circuitNumber191TotalFixedEdgesAtConflict=1780
%%%mzn-stat: circuitNumber191NumberOfConflicts=140
%%%mzn-stat: circuitNumber191PropagationsThatPruned=448
%%%mzn-stat: circuitNumber191PropagationsTotal=1750
%%%mzn-stat: AverageConflictSize=5.96484375
%%%mzn-stat: NumUnitNogoodsLearned=1
%%%mzn-stat: AverageLearnedNogoodLength=22.15
%%%mzn-stat: AverageBacktrackAmount=0
%%%mzn-stat: AverageLbd=6.53984375
%%%mzn-stat: 2AutonomousSearchNumBackupCalled=896
%%%mzn-stat: 2AutonomousSearchNumPredicatesRemoved=0
%%%mzn-stat: 2AutonomousSearchNumCalls=905
%%%mzn-stat: 2AutonomousSearchNumPredicatesAdded=3610
%%%mzn-stat: 2AutonomousSearchAverageSizeOfHeap=4.4088397790055245
%%%mzn-stat: 2AutonomousSearchNumAssignedPredicatesEncountered=3990
%%%mzn-stat-end
